NAME: instance_9
TYPE: TSP
COMMENT: 9-city problem
DIMENSION: 9
EDGE_WEIGHT_TYPE: EUC_2D
NODE_COORD_SECTION
0 789 740
1 346 930
2 701 373
3 78 638
4 576 414
5 896 397
6 818 648
7 159 591
8 847 178
EOF
